NAME : PR263C
TYPE : PDTSP
DIMENSION : 263
EDGE_WEIGHT_TYPE : EUC_2D
NODE_COORD_SECTION
1 3425 6450
2 3625 3200
3 3525 3200
4 3525 3350
5 3625 3350
6 3725 3350
7 3725 3650
8 3625 3650
9 3525 3650
10 3525 3850
11 3625 3850
12 3725 3850
13 3725 4150
14 3625 4150
15 3525 4150
16 3525 4350
17 3625 4350
18 3725 4350
19 3725 4650
20 3625 4650
21 3525 4650
22 3525 4850
23 3625 4850
24 3725 4850
25 3725 5150
26 3625 5150
27 3525 5150
28 3525 5350
29 3625 5350
30 3725 5350
31 3725 5650
32 3625 5650
33 3525 5650
34 3525 5850
35 3625 5850
36 3725 5850
37 3725 6150
38 3625 6150
39 3525 6150
40 3525 6450
41 3525 6650
42 3675 7150
43 3675 7500
44 3675 7700
45 3675 7850
46 3675 8050
47 3525 8300
48 3625 8300
49 3725 8300
50 3725 8600
51 3625 8600
52 3525 8600
53 3825 8750
54 3925 8750
55 3925 8600
56 3825 8600
57 3825 8300
58 3925 8300
59 3925 7600
60 3925 6150
61 3825 6150
62 3825 5850
63 3925 5850
64 3925 5650
65 3825 5650
66 3825 5350
67 3925 5350
68 3925 5150
69 3825 5150
70 3825 4850
71 3925 4850
72 3925 4650
73 3825 4650
74 3825 4350
75 3925 4350
76 3925 4150
77 3825 4150
78 3825 3850
79 3925 3850
80 3925 3650
81 3825 3650
82 3825 3350
83 3925 3350
84 3875 3200
85 4075 3200
86 4025 3350
87 4125 3350
88 4225 3350
89 4225 3650
90 4125 3650
91 4025 3650
92 4025 3850
93 4125 3850
94 4225 3850
95 4225 4150
96 4125 4150
97 4025 4150
98 4025 4350
99 4125 4350
100 4225 4350
101 4225 4650
102 4125 4650
103 4025 4650
104 4025 4850
105 4125 4850
106 4225 4850
107 4225 5150
108 4125 5150
109 4025 5150
110 4025 5350
111 4125 5350
112 4225 5350
113 4225 5650
114 4125 5650
115 4025 5650
116 4025 5850
117 4125 5850
118 4225 5850
119 4225 6150
120 4125 6150
121 4025 6150
122 4025 8300
123 4125 8300
124 4225 8300
125 4225 8600
126 4125 8600
127 4025 8600
128 4275 8850
129 4875 6100
130 4975 4050
131 4975 3900
132 4975 3750
133 9675 3200
134 9675 3350
135 9675 3650
136 9675 3850
137 9675 4150
138 9675 4350
139 9675 4650
140 9675 4850
141 9675 5150
142 9675 5350
143 9675 5650
144 9675 5850
145 9675 6150
146 9575 6450
147 9675 6450
148 9675 6650
149 9675 8300
150 9675 8600
151 9975 8750
152 9975 8600
153 9775 8600
154 9775 8300
155 9875 8300
156 9975 8300
157 9825 8050
158 9825 7850
159 9825 7700
160 9825 7500
161 9825 7150
162 9975 6150
163 9875 6150
164 9775 6150
165 9775 5850
166 9875 5850
167 9975 5850
168 9975 5650
169 9875 5650
170 9775 5650
171 9775 5350
172 9875 5350
173 9975 5350
174 9775 5150
175 9875 5150
176 9975 5150
177 9975 4850
178 9875 4850
179 9775 4850
180 9775 4650
181 9875 4650
182 9975 4650
183 9975 4350
184 9875 4350
185 9775 4350
186 9775 4150
187 9875 4150
188 9975 4150
189 9975 3850
190 9875 3850
191 9775 3850
192 9975 3650
193 9875 3650
194 9775 3650
195 9775 3350
196 9875 3350
197 9975 3350
198 9775 3200
199 10225 3200
200 10025 3200
201 10075 3350
202 10175 3350
203 10175 3650
204 10075 3650
205 10175 3850
206 10075 3850
207 10075 4150
208 10175 4150
209 10175 4350
210 10075 4350
211 10075 4650
212 10175 4650
213 10175 4850
214 10075 4850
215 10075 5150
216 10175 5150
217 10075 5350
218 10175 5350
219 10175 5650
220 10075 5650
221 10075 5850
222 10175 5850
223 10175 6150
224 10075 6150
225 10075 7600
226 10075 8300
227 10175 8300
228 10175 8600
229 10075 8600
230 10075 8750
231 10425 8850
232 10375 8600
233 10275 8600
234 10275 8300
235 10375 8300
236 10375 6150
237 10275 6150
238 10275 5850
239 10375 5850
240 10375 5650
241 10275 5650
242 10275 5350
243 10375 5350
244 10275 5150
245 10375 5150
246 10375 4850
247 10275 4850
248 10275 4650
249 10375 4650
250 10375 4350
251 10275 4350
252 10275 4150
253 10375 4150
254 10375 3850
255 10275 3850
256 10375 3650
257 10275 3650
258 10275 3350
259 10375 3350
260 11125 3750
261 11125 3900
262 11125 4050
263 11025 6100
PICKUP_AND_DELIVERY_SECTION
1 0 0 0 0 0 0
2 0 0 0 0 59 0
3 0 0 0 0 9 0
4 0 0 0 0 0 62
5 0 0 0 0 0 90
6 0 0 0 0 262 0
7 0 0 0 0 0 151
8 0 0 0 0 136 0
9 0 0 0 0 0 3
10 0 0 0 0 185 0
11 0 0 0 0 193 0
12 0 0 0 0 169 0
13 0 0 0 0 0 206
14 0 0 0 0 158 0
15 0 0 0 0 0 53
16 0 0 0 0 0 263
17 0 0 0 0 0 175
18 0 0 0 0 246 0
19 0 0 0 0 149 0
20 0 0 0 0 28 0
21 0 0 0 0 186 0
22 0 0 0 0 226 0
23 0 0 0 0 218 0
24 0 0 0 0 249 0
25 0 0 0 0 0 155
26 0 0 0 0 0 39
27 0 0 0 0 0 166
28 0 0 0 0 0 20
29 0 0 0 0 0 244
30 0 0 0 0 142 0
31 0 0 0 0 0 37
32 0 0 0 0 164 0
33 0 0 0 0 0 112
34 0 0 0 0 82 0
35 0 0 0 0 107 0
36 0 0 0 0 87 0
37 0 0 0 0 31 0
38 0 0 0 0 0 260
39 0 0 0 0 26 0
40 0 0 0 0 77 0
41 0 0 0 0 0 198
42 0 0 0 0 0 127
43 0 0 0 0 0 122
44 0 0 0 0 201 0
45 0 0 0 0 119 0
46 0 0 0 0 152 0
47 0 0 0 0 0 230
48 0 0 0 0 0 209
49 0 0 0 0 0 115
50 0 0 0 0 195 0
51 0 0 0 0 237 0
52 0 0 0 0 235 0
53 0 0 0 0 15 0
54 0 0 0 0 106 0
55 0 0 0 0 223 0
56 0 0 0 0 0 120
57 0 0 0 0 74 0
58 0 0 0 0 214 0
59 0 0 0 0 0 2
60 0 0 0 0 0 261
61 0 0 0 0 210 0
62 0 0 0 0 4 0
63 0 0 0 0 0 224
64 0 0 0 0 236 0
65 0 0 0 0 0 240
66 0 0 0 0 176 0
67 0 0 0 0 88 0
68 0 0 0 0 132 0
69 0 0 0 0 0 191
70 0 0 0 0 0 245
71 0 0 0 0 117 0
72 0 0 0 0 0 242
73 0 0 0 0 0 199
74 0 0 0 0 0 57
75 0 0 0 0 0 203
76 0 0 0 0 208 0
77 0 0 0 0 0 40
78 0 0 0 0 0 121
79 0 0 0 0 172 0
80 0 0 0 0 0 126
81 0 0 0 0 239 0
82 0 0 0 0 0 34
83 0 0 0 0 154 0
84 0 0 0 0 0 100
85 0 0 0 0 0 202
86 0 0 0 0 0 134
87 0 0 0 0 0 36
88 0 0 0 0 0 67
89 0 0 0 0 189 0
90 0 0 0 0 5 0
91 0 0 0 0 0 143
92 0 0 0 0 243 0
93 0 0 0 0 156 0
94 0 0 0 0 0 196
95 0 0 0 0 197 0
96 0 0 0 0 0 137
97 0 0 0 0 227 0
98 0 0 0 0 104 0
99 0 0 0 0 0 187
100 0 0 0 0 84 0
101 0 0 0 0 145 0
102 0 0 0 0 160 0
103 0 0 0 0 128 0
104 0 0 0 0 0 98
105 0 0 0 0 133 0
106 0 0 0 0 0 54
107 0 0 0 0 0 35
108 0 0 0 0 0 114
109 0 0 0 0 0 113
110 0 0 0 0 0 180
111 0 0 0 0 0 257
112 0 0 0 0 33 0
113 0 0 0 0 109 0
114 0 0 0 0 108 0
115 0 0 0 0 49 0
116 0 0 0 0 252 0
117 0 0 0 0 0 71
118 0 0 0 0 0 146
119 0 0 0 0 0 45
120 0 0 0 0 56 0
121 0 0 0 0 78 0
122 0 0 0 0 43 0
123 0 0 0 0 144 0
124 0 0 0 0 0 259
125 0 0 0 0 0 211
126 0 0 0 0 80 0
127 0 0 0 0 42 0
128 0 0 0 0 0 103
129 0 0 0 0 234 0
130 0 0 0 0 188 0
131 0 0 0 0 0 157
132 0 0 0 0 0 68
133 0 0 0 0 0 105
134 0 0 0 0 86 0
135 0 0 0 0 0 171
136 0 0 0 0 0 8
137 0 0 0 0 96 0
138 0 0 0 0 222 0
139 0 0 0 0 0 159
140 0 0 0 0 247 0
141 0 0 0 0 238 0
142 0 0 0 0 0 30
143 0 0 0 0 91 0
144 0 0 0 0 0 123
145 0 0 0 0 0 101
146 0 0 0 0 118 0
147 0 0 0 0 0 200
148 0 0 0 0 182 0
149 0 0 0 0 0 19
150 0 0 0 0 221 0
151 0 0 0 0 7 0
152 0 0 0 0 0 46
153 0 0 0 0 0 254
154 0 0 0 0 0 83
155 0 0 0 0 25 0
156 0 0 0 0 0 93
157 0 0 0 0 131 0
158 0 0 0 0 0 14
159 0 0 0 0 139 0
160 0 0 0 0 0 102
161 0 0 0 0 216 0
162 0 0 0 0 241 0
163 0 0 0 0 256 0
164 0 0 0 0 0 32
165 0 0 0 0 0 253
166 0 0 0 0 27 0
167 0 0 0 0 174 0
168 0 0 0 0 225 0
169 0 0 0 0 0 12
170 0 0 0 0 219 0
171 0 0 0 0 135 0
172 0 0 0 0 0 79
173 0 0 0 0 217 0
174 0 0 0 0 0 167
175 0 0 0 0 17 0
176 0 0 0 0 0 66
177 0 0 0 0 231 0
178 0 0 0 0 0 258
179 0 0 0 0 0 207
180 0 0 0 0 110 0
181 0 0 0 0 190 0
182 0 0 0 0 0 148
183 0 0 0 0 0 192
184 0 0 0 0 220 0
185 0 0 0 0 0 10
186 0 0 0 0 0 21
187 0 0 0 0 99 0
188 0 0 0 0 0 130
189 0 0 0 0 0 89
190 0 0 0 0 0 181
191 0 0 0 0 69 0
192 0 0 0 0 183 0
193 0 0 0 0 0 11
194 0 0 0 0 0 215
195 0 0 0 0 0 50
196 0 0 0 0 94 0
197 0 0 0 0 0 95
198 0 0 0 0 41 0
199 0 0 0 0 73 0
200 0 0 0 0 147 0
201 0 0 0 0 0 44
202 0 0 0 0 85 0
203 0 0 0 0 75 0
204 0 0 0 0 228 0
205 0 0 0 0 0 250
206 0 0 0 0 13 0
207 0 0 0 0 179 0
208 0 0 0 0 0 76
209 0 0 0 0 48 0
210 0 0 0 0 0 61
211 0 0 0 0 125 0
212 0 0 0 0 0 213
213 0 0 0 0 212 0
214 0 0 0 0 0 58
215 0 0 0 0 194 0
216 0 0 0 0 0 161
217 0 0 0 0 0 173
218 0 0 0 0 0 23
219 0 0 0 0 0 170
220 0 0 0 0 0 184
221 0 0 0 0 0 150
222 0 0 0 0 0 138
223 0 0 0 0 0 55
224 0 0 0 0 63 0
225 0 0 0 0 0 168
226 0 0 0 0 0 22
227 0 0 0 0 0 97
228 0 0 0 0 0 204
229 0 0 0 0 232 0
230 0 0 0 0 47 0
231 0 0 0 0 0 177
232 0 0 0 0 0 229
233 0 0 0 0 0 248
234 0 0 0 0 0 129
235 0 0 0 0 0 52
236 0 0 0 0 0 64
237 0 0 0 0 0 51
238 0 0 0 0 0 141
239 0 0 0 0 0 81
240 0 0 0 0 65 0
241 0 0 0 0 0 162
242 0 0 0 0 72 0
243 0 0 0 0 0 92
244 0 0 0 0 29 0
245 0 0 0 0 70 0
246 0 0 0 0 0 18
247 0 0 0 0 0 140
248 0 0 0 0 233 0
249 0 0 0 0 0 24
250 0 0 0 0 205 0
251 0 0 0 0 255 0
252 0 0 0 0 0 116
253 0 0 0 0 165 0
254 0 0 0 0 153 0
255 0 0 0 0 0 251
256 0 0 0 0 0 163
257 0 0 0 0 111 0
258 0 0 0 0 178 0
259 0 0 0 0 124 0
260 0 0 0 0 38 0
261 0 0 0 0 60 0
262 0 0 0 0 0 6
263 0 0 0 0 16 0
DEPOT_SECTION
1 
-1
EOF
